Version identifier: 22.1.0.0 | 2022-03-09 | 1a383f8ce
CPXPARAM_Threads                                 1
CPXPARAM_MIP_Strategy_VariableSelect             3
CPXPARAM_TimeLimit                               599.99583940800005
Tried aggregator 1 time.
MIP Presolve eliminated 18 rows and 927 columns.
MIP Presolve modified 3 coefficients.
Reduced MIP has 2157 rows, 2781 columns, and 23645 nonzeros.
Reduced MIP has 2781 binaries, 0 generals, 0 SOSs, and 0 indicators.
Presolve time = 0.02 sec. (14.28 ticks)
Probing time = 0.00 sec. (2.71 ticks)
Tried aggregator 1 time.
Detecting symmetries...
Reduced MIP has 2157 rows, 2781 columns, and 23645 nonzeros.
Reduced MIP has 2781 binaries, 0 generals, 0 SOSs, and 0 indicators.
Presolve time = 0.02 sec. (13.94 ticks)
Probing time = 0.00 sec. (2.71 ticks)
Clique table members: 1534.
MIP emphasis: balance optimality and feasibility.
MIP search method: dynamic search.
Parallel mode: none, using 1 thread.
Root relaxation solution time = 0.03 sec. (21.73 ticks)

        Nodes                                         Cuts/
   Node  Left     Objective  IInf  Best Integer    Best Bound    ItCnt     Gap

      0     0    infeasible                                        546         

Root node processing (before b&c):
  Real time             =    0.13 sec. (104.67 ticks)
Sequential b&c:
  Real time             =    0.00 sec. (0.00 ticks)
                          ------------
Total (root+branch&cut) =    0.13 sec. (104.67 ticks)
Primal:	308
Dual:	308
Status:	Optimal
Time:	0.159436
Sequence:
	0
